language ESSENCE' 1.0
$ Minion SolverNodes: 3
$ Minion SolverTotalTime: 0.035679
$ Minion SolverTimeOut: 0
$ Savile Row TotalTime: 0.133
letting M be [[12, 29, 27, 3], 
[12, 27, 3, -1], 
[12, 3, -1, -1], 
[3, -1, -1, -1]]
